(declare-fun var0 () String)
(assert (str.in.re var0 (re.++ (re.* (re.* (str.to.re """"""""))) (re.++ (re.+ (re.+ (str.to.re "!!!"))) (re.++ (re.union (re.* (str.to.re "YYY")) (re.* (str.to.re "ZZZ"))) (re.++ (re.* (re.+ (str.to.re "XXX"))) (re.++ (re.* (re.union (str.to.re "VVV") (str.to.re "W"))) (re.++ (re.+ (re.union (str.to.re "T") (str.to.re "UU"))) (re.++ (re.+ (re.+ (str.to.re "SS"))) (re.++ (re.union (re.union (str.to.re "PP") (str.to.re "QQQ")) (re.+ (str.to.re "R"))) (re.++ (re.+ (re.+ (str.to.re "O"))) (re.++ (re.union (re.union (str.to.re "L") (str.to.re "MM")) (re.+ (str.to.re "NN"))) (re.++ (re.union (re.* (str.to.re "JJJ")) (re.* (str.to.re "K"))) (re.++ (re.+ (re.+ (str.to.re "III"))) (re.++ (re.union (re.union (str.to.re "EEE") (str.to.re "FFF")) (re.union (str.to.re "GGG") (str.to.re "HHH"))) (re.++ (re.union (re.+ (str.to.re "BB")) (re.union (str.to.re "C") (str.to.re "DD"))) (re.++ (re.union (re.union (str.to.re "xx") (str.to.re "y")) (re.union (str.to.re "z") (str.to.re "AAA"))) (re.++ (re.+ (re.* (str.to.re "ww"))) (re.++ (re.+ (re.+ (str.to.re "v"))) (re.++ (re.* (re.+ (str.to.re "uu"))) (re.++ (re.+ (re.union (str.to.re "sss") (str.to.re "t"))) (re.++ (re.+ (re.union (str.to.re "qqq") (str.to.re "rrr"))) (re.++ (re.+ (re.+ (str.to.re "p"))) (re.++ (re.+ (re.union (str.to.re "nnn") (str.to.re "ooo"))) (re.++ (re.union (re.union (str.to.re "k") (str.to.re "lll")) (re.* (str.to.re "m"))) (re.++ (re.* (re.union (str.to.re "ii") (str.to.re "j"))) (re.++ (re.* (re.+ (str.to.re "hh"))) (re.++ (re.* (re.* (str.to.re "gg"))) (re.++ (re.+ (re.+ (str.to.re "f"))) (re.++ (re.* (re.* (str.to.re "e"))) (re.++ (re.* (re.union (str.to.re "ccc") (str.to.re "d"))) (re.++ (re.* (re.* (str.to.re "bbb"))) (re.++ (re.* (re.union (str.to.re "9") (str.to.re "a"))) (re.++ (re.union (re.+ (str.to.re "77")) (re.+ (str.to.re "88"))) (re.++ (re.* (re.* (str.to.re "666"))) (re.++ (re.+ (re.* (str.to.re "555"))) (re.++ (re.union (re.union (str.to.re "1") (str.to.re "222")) (re.union (str.to.re "333") (str.to.re "44"))) (re.++ (re.* (re.+ (str.to.re "00"))) (re.++ (re.+ (re.union (str.to.re "}}") (str.to.re "~~~"))) (re.++ (re.+ (re.union (str.to.re "{{") (str.to.re "|"))) (re.++ (re.* (re.+ (str.to.re "```"))) (re.++ (re.union (re.+ (str.to.re "^^^")) (re.* (str.to.re "__"))) (re.++ (re.union (re.* (str.to.re "\\\\")) (re.+ (str.to.re "]"))) (re.++ (re.+ (re.+ (str.to.re "[[["))) (re.++ (re.+ (re.+ (str.to.re "@"))) (re.++ (re.union (re.+ (str.to.re ">>")) (re.* (str.to.re "?"))) (re.++ (re.union (re.* (str.to.re ";")) (re.union (str.to.re "<<") (str.to.re "=="))) (re.++ (re.+ (re.union (str.to.re "//") (str.to.re ":"))) (re.++ (re.+ (re.+ (str.to.re "..."))) (re.++ (re.+ (re.* (str.to.re "-"))) (re.++ (re.+ (re.+ (str.to.re ",,,"))) (re.++ (re.+ (re.+ (str.to.re "+++"))) (re.++ (re.union (re.* (str.to.re "))")) (re.* (str.to.re "**"))) (re.++ (re.* (re.+ (str.to.re "(("))) (re.++ (re.union (re.* (str.to.re "&&&")) (re.+ (str.to.re "'"))) (re.++ (re.* (re.* (str.to.re "%%%"))) (re.++ (re.* (re.union (str.to.re "#") (str.to.re "$$$"))) (re.++ (re.+ (re.* (str.to.re """"))) (re.++ (re.* (re.union (str.to.re "ZZ") (str.to.re "!!!"))) (re.++ (re.* (re.+ (str.to.re "Y"))) (re.++ (re.union (re.union (str.to.re "UUU") (str.to.re "V")) (re.union (str.to.re "W") (str.to.re "XX"))) (re.++ (re.+ (re.+ (str.to.re "TTT"))) (re.++ (re.union (re.+ (str.to.re "RRR")) (re.+ (str.to.re "SS"))) (re.++ (re.+ (re.+ (str.to.re "Q"))) (re.++ (re.union (re.union (str.to.re "MM") (str.to.re "N")) (re.union (str.to.re "OO") (str.to.re "PPP"))) (re.++ (re.* (re.+ (str.to.re "LLL"))) (re.++ (re.* (re.+ (str.to.re "KK"))) (re.++ (re.union (re.* (str.to.re "I")) (re.* (str.to.re "J"))) (re.++ (re.union (re.union (str.to.re "F") (str.to.re "GGG")) (re.+ (str.to.re "HHH"))) (re.++ (re.union (re.union (str.to.re "B") (str.to.re "CC")) (re.union (str.to.re "DDD") (str.to.re "E"))) (re.++ (re.union (re.union (str.to.re "yy") (str.to.re "z")) (re.* (str.to.re "A"))) (re.++ (re.+ (re.+ (str.to.re "x"))) (re.++ (re.union (re.* (str.to.re "u")) (re.union (str.to.re "vv") (str.to.re "www"))) (re.++ (re.* (re.+ (str.to.re "ttt"))) (re.++ (re.* (re.union (str.to.re "r") (str.to.re "ss"))) (re.++ (re.* (re.union (str.to.re "p") (str.to.re "qq"))) (re.++ (re.* (re.+ (str.to.re "oo"))) (re.++ (re.* (re.* (str.to.re "nnn"))) (re.++ (re.union (re.+ (str.to.re "ll")) (re.+ (str.to.re "m"))) (re.++ (re.* (re.union (str.to.re "jj") (str.to.re "k"))) (re.++ (re.union (re.* (str.to.re "g")) (re.union (str.to.re "h") (str.to.re "iii"))) (re.++ (re.* (re.* (str.to.re "ff"))) (re.++ (re.+ (re.union (str.to.re "dd") (str.to.re "ee"))) (re.++ (re.union (re.+ (str.to.re "bb")) (re.* (str.to.re "c"))) (re.++ (re.+ (re.union (str.to.re "999") (str.to.re "a"))) (re.++ (re.union (re.union (str.to.re "5") (str.to.re "66")) (re.union (str.to.re "7") (str.to.re "88"))) (re.++ (re.* (re.union (str.to.re "33") (str.to.re "4"))) (re.++ (re.* (re.union (str.to.re "111") (str.to.re "22"))) (re.++ (re.+ (re.* (str.to.re "00"))) (re.++ (re.* (re.* (str.to.re "~~"))) (re.++ (re.+ (re.union (str.to.re "||") (str.to.re "}"))) (re.++ (re.* (re.union (str.to.re "```") (str.to.re "{{{"))) (re.++ (re.union (re.+ (str.to.re "]")) (re.union (str.to.re "^^") (str.to.re "_"))) (re.++ (re.+ (re.union (str.to.re "[") (str.to.re "\\\\"))) (re.++ (re.+ (re.* (str.to.re "@"))) (re.++ (re.+ (re.union (str.to.re ">>") (str.to.re "??"))) (re.++ (re.+ (re.+ (str.to.re "="))) (re.++ (re.+ (re.+ (str.to.re "<<"))) (re.++ (re.+ (re.* (str.to.re ";"))) (re.++ (re.+ (re.* (str.to.re ":"))) (re.++ (re.union (re.+ (str.to.re "--")) (re.union (str.to.re ".") (str.to.re "//"))) (re.++ (re.+ (re.+ (str.to.re ",,,"))) (re.++ (re.union (re.union (str.to.re ")))") (str.to.re "***")) (re.+ (str.to.re "+"))) (re.++ (re.+ (re.* (str.to.re "(("))) (re.++ (re.+ (re.+ (str.to.re "'"))) (re.++ (re.+ (re.union (str.to.re "%%%") (str.to.re "&"))) (re.++ (re.+ (re.+ (str.to.re "$$$"))) (re.++ (re.+ (re.* (str.to.re "##"))) (re.++ (re.union (re.* (str.to.re "ZZ")) (re.union (str.to.re "!") (str.to.re """"""))) (re.++ (re.+ (re.+ (str.to.re "Y"))) (re.++ (re.union (re.+ (str.to.re "WW")) (re.* (str.to.re "XX"))) (re.++ (re.* (re.+ (str.to.re "VV"))) (re.++ (re.union (re.* (str.to.re "SSS")) (re.union (str.to.re "TT") (str.to.re "UUU"))) (re.++ (re.* (re.* (str.to.re "RR"))) (re.++ (re.union (re.union (str.to.re "OO") (str.to.re "P")) (re.* (str.to.re "Q"))) (re.++ (re.+ (re.+ (str.to.re "NN"))) (re.++ (re.union (re.* (str.to.re "L")) (re.* (str.to.re "MMM"))) (re.++ (re.+ (re.union (str.to.re "J") (str.to.re "KKK"))) (re.++ (re.union (re.+ (str.to.re "HH")) (re.* (str.to.re "I"))) (re.++ (re.+ (re.+ (str.to.re "GG"))) (re.++ (re.+ (re.+ (str.to.re "FF"))) (re.++ (re.union (re.union (str.to.re "BBB") (str.to.re "CCC")) (re.union (str.to.re "D") (str.to.re "EEE"))) (re.++ (re.union (re.* (str.to.re "z")) (re.* (str.to.re "AAA"))) (re.++ (re.+ (re.+ (str.to.re "yy"))) (re.++ (re.+ (re.union (str.to.re "ww") (str.to.re "x"))) (re.++ (re.+ (re.* (str.to.re "vvv"))) (re.++ (re.union (re.union (str.to.re "ss") (str.to.re "ttt")) (re.* (str.to.re "u"))) (re.++ (re.+ (re.+ (str.to.re "r"))) (re.++ (re.union (re.union (str.to.re "oo") (str.to.re "pp")) (re.* (str.to.re "q"))) (re.++ (re.union (re.+ (str.to.re "ll")) (re.union (str.to.re "mm") (str.to.re "n"))) (re.++ (re.+ (re.union (str.to.re "jj") (str.to.re "k"))) (re.++ (re.+ (re.+ (str.to.re "ii"))) (re.++ (re.+ (re.union (str.to.re "g") (str.to.re "hhh"))) (re.++ (re.union (re.* (str.to.re "e")) (re.* (str.to.re "fff"))) (re.++ (re.+ (re.+ (str.to.re "dd"))) (re.++ (re.* (re.* (str.to.re "c"))) (re.++ (re.+ (re.* (str.to.re "b"))) (re.++ (re.+ (re.+ (str.to.re "aa"))) (re.++ (re.union (re.union (str.to.re "77") (str.to.re "888")) (re.+ (str.to.re "999"))) (re.++ (re.+ (re.* (str.to.re "666"))) (re.++ (re.+ (re.union (str.to.re "444") (str.to.re "5"))) (re.++ (re.+ (re.union (str.to.re "222") (str.to.re "3"))) (re.* (re.union (str.to.re "0") (str.to.re "1")))))))))))))))))))))))))))))))))))))))))))))))))))))))))))))))))))))))))))))))))))))))))))))))))))))))))))))))))))))))))))))))))))))))))))))))))
(check-sat)